
Log started (V22.1.1.0) Wed Apr 10 16:17:37 2024

New value for mixed integer optimality gap tolerance: 0.0002
New value for time limit in seconds: 14400
New value for integrality tolerance: 0
New value for feasibility tolerance: 1e-08

Problem '/tmp/224231.1.RCCS/tmp2kztn_2r.pyomo.lp' read.
Read time = 0.05 sec. (4.09 ticks)

Problem name         : /tmp/224231.1.RCCS/tmp2kztn_2r.pyomo.lp
Objective sense      : Minimize
Variables            :   23694  [Nneg: 1,  Box: 22663,  Binary: 46,
                                 General Integer: 984]
Objective nonzeros   :       2
Linear constraints   :   51371  [Less: 25018,  Greater: 2728,  Equal: 23625]
  Nonzeros           :   86761
  RHS nonzeros       :    2728

Variables            : Min LB: 0.000000         Max UB: 1.000000e+10   
Objective nonzeros   : Min   : 0.1187400        Max   : 1.000000       
Linear constraints   :
  Nonzeros           : Min   : 0.02000000       Max   : 1183048.       
  RHS nonzeros       : Min   : 1.000000         Max   : 2.166667e+07   
Version identifier: 22.1.1.0 | 2022-11-28 | 9160aff4d
CPXPARAM_Simplex_Tolerances_Feasibility          1e-08
CPXPARAM_TimeLimit                               14400
CPXPARAM_MIP_Tolerances_MIPGap                   0.00020000000000000001
CPXPARAM_MIP_Tolerances_Integrality              0
Tried aggregator 2 times.
MIP Presolve eliminated 50262 rows and 22108 columns.
MIP Presolve modified 203 coefficients.
Aggregator did 548 substitutions.
Reduced MIP has 561 rows, 1038 columns, and 3537 nonzeros.
Reduced MIP has 486 binaries, 28 generals, 0 SOSs, and 0 indicators.
Presolve time = 0.02 sec. (38.84 ticks)
Found incumbent of value 9796539.206738 after 0.03 sec. (42.81 ticks)
Probing time = 0.01 sec. (21.68 ticks)
Tried aggregator 1 time.
Detecting symmetries...
MIP Presolve eliminated 13 rows and 12 columns.
MIP Presolve modified 1 coefficients.
Reduced MIP has 548 rows, 1026 columns, and 3491 nonzeros.
Reduced MIP has 486 binaries, 28 generals, 0 SOSs, and 0 indicators.
Presolve time = 0.00 sec. (3.72 ticks)
Probing time = 0.00 sec. (3.56 ticks)
Clique table members: 14.
MIP emphasis: balance optimality and feasibility.
MIP search method: dynamic search.
Parallel mode: deterministic, using up to 32 threads.
Root relaxation solution time = 0.02 sec. (17.17 ticks)

        Nodes                                         Cuts/
   Node  Left     Objective  IInf  Best Integer    Best Bound    ItCnt     Gap

*     0+    0                      9796539.2067        0.0000           100.00%
*     0+    0                      6429345.9864        0.0000           100.00%
*     0+    0                      6401179.0616        0.0000           100.00%
*     0+    0                      4235030.7864        0.0000           100.00%
*     0+    0                      4206863.8616        0.0000           100.00%
*     0+    0                      2040715.5864        0.0000           100.00%
*     0+    0                      2012548.6616        0.0000           100.00%
*     0+    0                       931064.7416        0.0000           100.00%
      0     0    68271.2603     4   931064.7416    68271.2603      668   92.67%
*     0+    0                       204191.8643    68271.2603            66.57%
*     0+    0                        88382.8289    68271.2603            22.76%
      0     0    83071.1422     3    88382.8289      Cuts: 11      871    6.01%
*     0+    0                        86348.6513    83071.1422             3.80%
      0     0    83454.6761     5    86348.6513      Cuts: 10     1050    3.35%
*     0+    0                        85646.6513    83454.6761             2.56%
Detecting symmetries...

Repeating presolve.
Tried aggregator 2 times.
MIP Presolve eliminated 468 rows and 916 columns.
MIP Presolve modified 52 coefficients.
Aggregator did 14 substitutions.
Reduced MIP has 66 rows, 96 columns, and 304 nonzeros.
Reduced MIP has 37 binaries, 15 generals, 0 SOSs, and 0 indicators.
Presolve time = 0.00 sec. (1.07 ticks)
Probing fixed 2 vars, tightened 32 bounds.
Probing changed sense of 2 constraints.
Probing time = 0.00 sec. (0.19 ticks)
Cover probing fixed 0 vars, tightened 26 bounds.
Tried aggregator 2 times.
MIP Presolve eliminated 3 rows and 5 columns.
MIP Presolve modified 11 coefficients.
Aggregator did 2 substitutions.
Reduced MIP has 61 rows, 89 columns, and 282 nonzeros.
Reduced MIP has 33 binaries, 14 generals, 0 SOSs, and 0 indicators.
Presolve time = 0.00 sec. (0.40 ticks)
Probing fixed 0 vars, tightened 14 bounds.
Probing time = 0.00 sec. (0.17 ticks)
Cover probing fixed 0 vars, tightened 3 bounds.
Tried aggregator 1 time.
Detecting symmetries...
MIP Presolve modified 10 coefficients.
Reduced MIP has 61 rows, 89 columns, and 282 nonzeros.
Reduced MIP has 33 binaries, 14 generals, 0 SOSs, and 0 indicators.
Presolve time = 0.00 sec. (0.21 ticks)
Represolve time = 0.01 sec. (21.14 ticks)
Probing fixed 3 vars, tightened 33 bounds.
Probing time = 0.00 sec. (0.17 ticks)
Cover probing fixed 0 vars, tightened 4 bounds.
Clique table members: 6.
MIP emphasis: balance optimality and feasibility.
MIP search method: dynamic search.
Parallel mode: deterministic, using up to 32 threads.
Root relaxation solution time = 0.00 sec. (0.61 ticks)

        Nodes                                         Cuts/
   Node  Left     Objective  IInf  Best Integer    Best Bound    ItCnt     Gap

*     0+    0                        85646.6513    83454.6761             2.56%
      0     0    83726.2138     5    85646.6513    83726.2138     1138    2.24%
      0     0    84291.2772     6    85646.6513       Cuts: 7     1143    1.58%
      0     0        cutoff          85646.6513    85646.6513     1146    0.00%
Elapsed time = 0.48 sec. (181.49 ticks, tree = 0.01 MB, solutions = 12)

GUB cover cuts applied:  1
Cover cuts applied:  1
Flow cuts applied:  2
Mixed integer rounding cuts applied:  2
Lift and project cuts applied:  1
Gomory fractional cuts applied:  3

Root node processing (before b&c):
  Real time             =    0.48 sec. (183.86 ticks)
Parallel b&c, 32 threads:
  Real time             =    0.00 sec. (0.00 ticks)
  Sync time (average)   =    0.00 sec.
  Wait time (average)   =    0.00 sec.
                          ------------
Total (root+branch&cut) =    0.48 sec. (183.86 ticks)

Solution pool: 12 solutions saved.

MIP - Integer optimal solution:  Objective =  8.5646651257e+04
Solution time =    0.49 sec.  Iterations = 1146  Nodes = 0
Deterministic time = 183.93 ticks  (374.13 ticks/sec)


Incumbent solution written to file '/tmp/224231.1.RCCS/tmpr_ufvm_1.cplex.sol'.
